data;

set A := 238077 676898 699792 847911 681178 212702 604656 107025 730756 770034 389676 344509 890059 627497 741150 311306 746725 857862 733612 585521 459444 84616 568003 891975 166085 438183 630110 473656 795469 693462 499774 865867 581036 468737 808752 217698 684139 623630 109453 509048 322175 769566 383283 752419 61701 413386 53582 334033 961414 385128 419731 821644 516594 514885 24385 686584 573030 599209 349408 682257 387112 639768 732931 918128 66215 752846 615943 769348 848509 610751 153555 479131 372719 354718 688920 674008 61417 845781 621713 157500 258115 24199 937985 849311;
param T := 21000000;

end;
